191
0 94 97 46 105 18 186 47 85 151 
86 61 133 189 160 162 179 103 59 187 
140 144 147 93 135 111 14 60 112 84 
39 121 30 44 68 41 141 49 55 4 
109 176 166 127 183 79 64 188 152 20 
165 25 168 37 159 10 80 145 62 27 
122 16 48 129 106 149 91 38 171 53 
23 19 57 7 74 169 51 90 137 88 
35 108 82 134 115 180 34 81 170 143 
98 177 100 54 29 71 124 40 139 161 
75 114 42 102 95 117 128 182 190 26 
5 172 58 21 2 72 150 32 45 3 
156 52 8 154 107 130 131 24 173 136 
116 66 138 157 132 126 164 70 67 118 
155 167 36 22 77 73 120 83 185 92 
125 76 33 12 50 28 11 142 63 78 
9 174 17 43 96 1 148 184 146 163 
99 6 175 101 31 153 69 15 119 56 
113 158 178 123 181 65 110 87 89 13 
104 
